c SAT-encoding for the no-three-in-line problem of N=3
p cnf 57 150
-10 -13 0
3 -13 0
-3 13 0
-11 -14 0
5 -14 0
-5 14 0
-12 -15 0
7 -15 0
-7 15 0
-10 7 0
-10 5 0
-7 -5 10 0
-11 7 0
-11 3 0
-7 -3 11 0
-12 5 0
-12 3 0
-5 -3 12 0
16 17 18 0
-16 -19 0
6 -19 0
-6 19 0
-17 -20 0
5 -20 0
-5 20 0
-18 -21 0
4 -21 0
-4 21 0
-16 4 0
-16 5 0
-4 -5 16 0
-17 4 0
-17 6 0
-4 -6 17 0
-18 5 0
-18 6 0
-5 -6 18 0
22 23 24 0
-22 -25 0
9 -25 0
-9 25 0
-23 -26 0
8 -26 0
-8 26 0
-24 -27 0
7 -27 0
-7 27 0
-22 7 0
-22 8 0
-7 -8 22 0
-23 7 0
-23 9 0
-7 -9 23 0
-24 8 0
-24 9 0
-8 -9 24 0
28 29 30 0
-28 -31 0
3 -31 0
-3 31 0
-29 -32 0
2 -32 0
-2 32 0
-30 -33 0
1 -33 0
-1 33 0
-28 1 0
-28 2 0
-1 -2 28 0
-29 1 0
-29 3 0
-1 -3 29 0
-30 2 0
-30 3 0
-2 -3 30 0
-34 -37 0
9 -37 0
-9 37 0
-35 -38 0
5 -38 0
-5 38 0
-36 -39 0
1 -39 0
-1 39 0
-34 1 0
-34 5 0
-1 -5 34 0
-35 1 0
-35 9 0
-1 -9 35 0
-36 5 0
-36 9 0
-5 -9 36 0
40 41 42 0
-40 -43 0
7 -43 0
-7 43 0
-41 -44 0
4 -44 0
-4 44 0
-42 -45 0
1 -45 0
-1 45 0
-40 1 0
-40 4 0
-1 -4 40 0
-41 1 0
-41 7 0
-1 -7 41 0
-42 4 0
-42 7 0
-4 -7 42 0
46 47 48 0
-46 -49 0
8 -49 0
-8 49 0
-47 -50 0
5 -50 0
-5 50 0
-48 -51 0
2 -51 0
-2 51 0
-46 2 0
-46 5 0
-2 -5 46 0
-47 2 0
-47 8 0
-2 -8 47 0
-48 5 0
-48 8 0
-5 -8 48 0
52 53 54 0
-52 -55 0
9 -55 0
-9 55 0
-53 -56 0
6 -56 0
-6 56 0
-54 -57 0
3 -57 0
-3 57 0
-52 3 0
-52 6 0
-3 -6 52 0
-53 3 0
-53 9 0
-3 -9 53 0
-54 6 0
-54 9 0
-6 -9 54 0
